$rem 
    method pbe0
    ecp srlc
    basis srlc
    sym_ignore true
    scf_convergence 5
    scf_max_cycles 200
    jobtype     force 
    qm_mm       true 
    sym_ignore  true 
$end 

$molecule 
    0  1 
    H        1.65800000       7.84100000      12.37700000 
    H        4.99100000       7.82700000       3.91400000 
    H        2.33700000      11.04600000       3.96200000 
    H        1.61800000      14.29400000      12.43000000 
    H        5.62800000      11.06700000      12.41300000 
    H        4.98300000      14.29100000       3.94300000 
    Se       4.83800000       8.99500000       9.18300000 
    Zn       2.56900000       9.77700000       9.18200000 
    Zn       5.95200000       9.70600000       7.16100000 
    N        1.41500000       8.39700000      10.33500000 
    C        1.06100000       8.53000000      11.77600000 
    H        0.00000000       8.30000000      11.91700000 
    H        1.26200000       9.52700000      12.17000000 
    H        1.64000000       7.41700000      10.11300000 
    H        0.62500000       8.66800000       9.76300000 
    N        4.80200000       8.39100000       5.96700000 
    C        4.41300000       8.50800000       4.53900000 
    H        4.58900000       9.51800000       4.17900000 
    H        3.34600000       8.29300000       4.43000000 
    H        5.00200000       7.41500000       6.22400000 
    H        4.03500000       8.67600000       6.57900000 
    Se       1.53200000      15.69300000       6.96000000 
    Se       2.36300000      12.19600000       9.17300000 
    Se       5.99100000      12.15700000       7.12200000 
    Se       4.86400000      15.71000000       9.40500000 
    Zn       1.23800000      13.20600000       6.81300000 
    Zn       2.37900000      16.30600000       9.04400000 
    Zn       4.65900000      13.06400000       9.23600000 
    Zn       5.91600000      16.07200000       7.13500000 
    N        2.57400000      11.58000000       5.99300000 
    C        2.95900000      11.69200000       4.58100000 
    H        4.02000000      11.46600000       4.44100000 
    H        2.74300000      12.70700000       4.25200000 
    H        2.31700000      10.62100000       6.23300000 
    H        3.29000000      11.91000000       6.62800000 
    N        1.40000000      14.90800000      10.41100000 
    C        1.03700000      15.00200000      11.83100000 
    H       -0.01700000      14.74600000      11.96800000 
    H        1.25000000      16.00600000      12.20200000 
    H        1.61200000      13.91700000      10.18300000 
    H        0.64700000      15.17600000       9.77400000 
    N        5.87000000      11.69700000      10.40200000 
    C        6.22700000      11.77000000      11.82600000 
    H        6.04200000      12.77100000      12.21300000 
    H        7.28800000      11.53200000      11.95300000 
    H        5.62000000      10.70700000      10.15700000 
    H        6.65100000      11.92300000       9.79000000 
    N        4.73600000      14.90600000       5.96900000 
    C        4.39000000      14.99800000       4.52900000 
    H        4.58700000      16.00000000       4.16500000 
    H        3.32300000      14.78200000       4.42100000 
    H        4.92300000      13.91400000       6.18000000 
    H        3.89500000      15.16400000       6.51800000 
    Se       8.29900000      15.61000000       7.10400000 
    Zn       8.11100000      13.18500000       7.16100000 
    O        0.94700000      16.58400000       4.39900000 
    O        1.76900000      17.19100000       3.62600000 
    O        0.22300000      13.07700000       5.19900000 
    O        1.11200000      13.73800000       4.29100000 
    O       -1.25400000      15.47000000       7.32100000 
    O       -1.31500000      14.15100000       7.06500000 
    O       -3.49100000      12.44500000       7.89400000 
    H       -3.14300000      12.63500000       6.98300000 
    H       -3.65500000      11.48000000       7.93500000 
    O       -1.33500000       9.87100000       3.61500000 
    H       -1.60200000      10.80000000       3.51800000 
    H       -0.87500000       9.54200000       2.82500000 
    O        1.42300000      11.94700000       2.19200000 
    H        0.49900000      11.95000000       1.84800000 
    H        1.43000000      12.63100000       2.91500000 
    O       -2.95600000      12.66200000       5.24900000 
    H       -2.85200000      13.63100000       5.19300000 
    H       -3.39300000      12.29200000       4.45900000 
    O        0.75900000      18.12900000       9.05800000 
    H        0.38900000      18.80700000       9.65900000 
    H        0.33000000      18.23200000       8.15500000 
    O       -1.36700000      12.92400000       9.72600000 
    H       -2.04400000      12.93800000       9.00200000 
    H       -0.53300000      13.27500000       9.38200000 
$end 

$external_charges 
         1.39500000       2.56300000       7.30200000      -0.75000000 
         2.64500000      -0.68800000       9.00200000      -0.75000000 
         5.93900000      -0.69000000       7.30900000      -0.75000000 
         4.71500000       2.54900000       9.05300000      -0.75000000 
         1.53100000       0.24600000       7.16900000       0.50000000 
         2.49900000       3.45600000       9.18900000       0.50000000 
         4.85300000       0.25200000       9.16400000       0.50000000 
         5.79200000       3.48000000       7.17900000       0.50000000 
         2.27500000      -1.33400000       6.00600000      -0.80000000 
         2.85700000      -1.19200000       4.51800000      -0.20000000 
         2.20700000      -2.06600000       3.34700000      -0.55000000 
         4.00400000      -1.42300000       4.54900000       0.20000000 
         2.75000000      -0.09900000       4.15300000       0.20000000 
         1.99700000      -1.44300000       2.47200000       0.20000000 
         1.23300000      -2.54400000       3.73000000       0.20000000 
         2.92700000      -2.90900000       3.04800000       0.20000000 
         2.64500000      -2.37100000       6.20200000       0.40000000 
         3.06100000      -1.01000000       6.82100000       0.40000000 
         1.71700000       1.91900000      10.35900000      -0.80000000 
         1.10900000       2.06000000      11.85400000      -0.20000000 
         1.74100000       1.17400000      13.01500000      -0.55000000 
        -0.03600000       1.83700000      11.82500000       0.20000000 
         1.23900000       3.14600000      12.23200000       0.20000000 
         1.95900000       1.79100000      13.89100000       0.20000000 
         1.00900000       0.33400000      13.29300000       0.20000000 
         2.70900000       0.68600000      12.63200000       0.20000000 
         1.39800000       0.85000000      10.17600000       0.40000000 
         0.96700000       2.22100000       9.57000000       0.40000000 
         5.58100000      -1.32900000      10.33100000      -0.80000000 
         6.16200000      -1.18200000      11.84000000      -0.20000000 
         5.54200000      -2.08000000      13.00500000      -0.55000000 
         6.04100000      -0.07500000      12.15600000       0.20000000 
         7.31000000      -1.42600000      11.86800000       0.20000000 
         5.34000000      -1.46100000      13.88800000       0.20000000 
         4.57100000      -2.55900000      12.62800000       0.20000000 
         6.27300000      -2.91300000      13.29300000       0.20000000 
         5.93700000      -2.35300000      10.14800000       0.40000000 
         6.35900000      -1.00300000       9.54000000       0.40000000 
         5.01700000       1.93100000       6.01700000      -0.80000000 
         4.41100000       2.05600000       4.50700000      -0.20000000 
         5.06800000       1.15000000       3.35200000      -0.55000000 
         4.51500000       3.16600000       4.21200000       0.20000000 
         3.23800000       1.79500000       4.45400000       0.20000000 
         5.30500000       1.74800000       2.47400000       0.20000000 
         6.03900000       0.65700000       3.77900000       0.20000000 
         4.33900000       0.31300000       3.04400000       0.20000000 
         4.75300000       0.87200000       6.22000000       0.40000000 
         4.25400000       2.21600000       6.82100000       0.40000000 
         1.30100000       9.00500000       7.31500000      -0.75000000 
         2.65900000       5.75100000       9.04400000      -0.75000000 
         6.00100000       5.79100000       7.33600000      -0.75000000 
         1.51100000       6.67600000       7.14900000       0.50000000 
         4.87100000       6.68300000       9.17900000       0.50000000 
         2.29600000       5.16500000       5.98300000      -0.80000000 
         2.85800000       5.29600000       4.49900000      -0.20000000 
         2.20900000       4.39600000       3.34500000      -0.55000000 
         4.01200000       5.09400000       4.52500000       0.20000000 
         2.71300000       6.38500000       4.12000000       0.20000000 
         1.98700000       5.01600000       2.46600000       0.20000000 
         1.24600000       3.92000000       3.73800000       0.20000000 
         2.92300000       3.56300000       3.04700000       0.20000000 
         2.62200000       4.11400000       6.17700000       0.40000000 
         3.07600000       5.48400000       6.78600000       0.40000000 
         5.59200000       5.14300000      10.35800000      -0.80000000 
         6.17500000       5.29000000      11.85200000      -0.20000000 
         5.54700000       4.39200000      13.01100000      -0.55000000 
         6.06000000       6.38500000      12.16400000       0.20000000 
         7.32300000       5.03800000      11.87800000       0.20000000 
         5.33800000       5.00400000      13.89400000       0.20000000 
         4.57600000       3.90500000      12.61800000       0.20000000 
         6.28600000       3.56300000      13.30100000       0.20000000 
         5.88100000       4.07200000      10.18200000       0.40000000 
         6.37000000       5.41600000       9.54900000       0.40000000 
         8.01500000       2.57900000       7.27300000      -0.75000000 
         9.26500000      -0.68800000       9.01700000      -0.75000000 
        12.58600000      -0.68900000       7.31400000      -0.75000000 
        11.34800000       2.56900000       9.06300000      -0.75000000 
         8.16500000       0.25900000       7.17100000       0.50000000 
         9.09900000       3.48700000       9.20100000       0.50000000 
        11.49700000       0.25400000       9.16700000       0.50000000 
        12.45000000       3.46900000       7.19900000       0.50000000 
         8.90000000      -1.32600000       6.01800000      -0.80000000 
         9.50300000      -1.18800000       4.52300000      -0.20000000 
         8.87100000      -2.07000000       3.35300000      -0.55000000 
        10.66100000      -1.40400000       4.56000000       0.20000000 
         9.37200000      -0.10400000       4.15100000       0.20000000 
         8.65800000      -1.44800000       2.48600000       0.20000000 
         7.90000000      -2.54900000       3.73700000       0.20000000 
         9.59700000      -2.90600000       3.05500000       0.20000000 
         9.24500000      -2.35200000       6.20300000       0.40000000 
         9.67500000      -1.01900000       6.83500000       0.40000000 
         8.37400000       1.92400000      10.34800000      -0.80000000 
         7.77100000       2.04600000      11.85500000      -0.20000000 
         8.40900000       1.15900000      13.01200000      -0.55000000 
         6.61800000       1.83900000      11.82300000       0.20000000 
         7.91100000       3.12800000      12.25800000       0.20000000 
         8.63200000       1.79400000      13.88600000       0.20000000 
         7.68700000       0.32800000      13.30100000       0.20000000 
         9.37700000       0.67900000      12.62700000       0.20000000 
         8.07400000       0.86200000      10.15500000       0.40000000 
         7.60100000       2.21400000       9.55000000       0.40000000 
        12.26000000      -1.33000000      10.32600000      -0.80000000 
        12.84100000      -1.18100000      11.83700000      -0.20000000 
        12.22500000      -2.07900000      13.00300000      -0.55000000 
        12.71600000      -0.07600000      12.15100000       0.20000000 
        13.99000000      -1.42200000      11.86600000       0.20000000 
        12.02300000      -1.46200000      13.88500000       0.20000000 
        11.25600000      -2.56000000      12.62400000       0.20000000 
        12.95800000      -2.91000000      13.29000000       0.20000000 
        12.63200000      -2.34900000      10.13500000       0.40000000 
        13.03900000      -0.99400000       9.52400000       0.40000000 
        11.70500000       1.93500000       6.01400000      -0.80000000 
        11.12400000       2.07500000       4.52100000      -0.20000000 
        11.75300000       1.17200000       3.37100000      -0.55000000 
        11.24200000       3.17300000       4.20000000       0.20000000 
         9.98500000       1.82400000       4.49600000       0.20000000 
        11.99800000       1.78500000       2.52900000       0.20000000 
        12.71000000       0.66800000       3.77100000       0.20000000 
        11.00900000       0.36100000       3.04700000       0.20000000 
        11.37300000       0.87600000       6.19000000       0.40000000 
        10.94100000       2.24600000       6.81900000       0.40000000 
         8.22400000       8.97000000       7.30300000      -0.75000000 
         9.21500000       5.84100000       9.20800000      -0.75000000 
        12.57700000       5.77400000       7.36300000      -0.75000000 
        11.40500000       9.01100000       9.11400000      -0.75000000 
         8.25600000       6.69000000       7.24000000       0.50000000 
         9.20300000       9.92300000       9.19500000       0.50000000 
        11.49200000       6.70800000       9.22300000       0.50000000 
        12.46500000       9.92200000       7.18700000       0.50000000 
         8.92900000       5.17400000       6.05800000      -0.80000000 
         9.47100000       5.33200000       4.53600000      -0.20000000 
         8.78900000       4.46700000       3.37900000      -0.55000000 
        10.62300000       5.12000000       4.52800000       0.20000000 
         9.32900000       6.41200000       4.17100000       0.20000000 
         8.59600000       5.08000000       2.49700000       0.20000000 
         7.81700000       4.01200000       3.76200000       0.20000000 
         9.50600000       3.60300000       3.07100000       0.20000000 
         9.21700000       4.11100000       6.21400000       0.40000000 
         9.71900000       5.44900000       6.83400000       0.40000000 
         8.39300000       8.38600000      10.36700000      -0.80000000 
         7.78500000       8.49900000      11.85200000      -0.20000000 
         8.41800000       7.58900000      13.01800000      -0.55000000 
         6.64300000       8.29300000      11.80900000       0.20000000 
         7.91900000       9.58400000      12.23700000       0.20000000 
         8.63900000       8.20800000      13.89700000       0.20000000 
         7.69400000       6.75400000      13.29600000       0.20000000 
         9.38400000       7.11000000      12.63100000       0.20000000 
         8.07800000       7.32400000      10.17100000       0.40000000 
         7.64500000       8.68800000       9.55300000       0.40000000 
        12.24600000       5.17300000      10.36400000      -0.80000000 
        12.84200000       5.31100000      11.84800000      -0.20000000 
        12.22100000       4.40100000      13.00000000      -0.55000000 
        12.71700000       6.41600000      12.16400000       0.20000000 
        13.98600000       5.07200000      11.86200000       0.20000000 
        11.99000000       5.01400000      13.87700000       0.20000000 
        11.26900000       3.89400000      12.58100000       0.20000000 
        12.95800000       3.59000000      13.30100000       0.20000000 
        12.54300000       4.10800000      10.16800000       0.40000000 
        13.01300000       5.47100000       9.54500000       0.40000000 
        11.71000000       8.36800000       6.01600000      -0.80000000 
        11.12400000       8.49900000       4.51300000      -0.20000000 
        11.75400000       7.58500000       3.35100000      -0.55000000 
        11.24300000       9.60300000       4.19200000       0.20000000 
         9.97800000       8.26000000       4.49500000       0.20000000 
        11.96200000       8.20600000       2.46000000       0.20000000 
        12.72300000       7.11200000       3.74100000       0.20000000 
        11.03100000       6.75800000       3.06200000       0.20000000 
        11.40600000       7.30800000       6.20500000       0.40000000 
        10.93200000       8.67100000       6.81500000       0.40000000 
         9.33400000      12.23300000       8.96400000      -0.75000000 
        12.62500000      12.25000000       7.31100000      -0.75000000 
        11.39500000      15.48700000       9.09300000      -0.75000000 
         9.13400000      16.44500000       9.21700000       0.50000000 
        11.54400000      13.15800000       9.19300000       0.50000000 
        12.45900000      16.40400000       7.18300000       0.50000000 
         8.97100000      11.66300000       5.97800000      -0.80000000 
         9.54600000      11.74700000       4.50600000      -0.20000000 
         8.89600000      10.84600000       3.34900000      -0.55000000 
        10.68400000      11.53100000       4.54700000       0.20000000 
         9.41500000      12.82500000       4.12600000       0.20000000 
         8.68500000      11.44100000       2.46600000       0.20000000 
         7.91200000      10.37600000       3.75100000       0.20000000 
         9.60600000      10.00400000       3.06400000       0.20000000 
         9.19500000      10.54800000       6.20300000       0.40000000 
         9.75700000      11.88800000       6.78800000       0.40000000 
         8.37200000      14.83800000      10.39800000      -0.80000000 
         7.77400000      14.97400000      11.86700000      -0.20000000 
         8.41400000      14.09600000      13.01900000      -0.55000000 
         6.63600000      14.75100000      11.83600000       0.20000000 
         7.90100000      16.07100000      12.25300000       0.20000000 
         8.63800000      14.72000000      13.88300000       0.20000000 
         7.68100000      13.25700000      13.30700000       0.20000000 
         9.38300000      13.60800000      12.62500000       0.20000000 
         8.09900000      13.73100000      10.20800000       0.40000000 
         7.61400000      15.09100000       9.61900000       0.40000000 
        12.26000000      11.62400000      10.35700000      -0.80000000 
        12.84900000      11.76200000      11.84900000      -0.20000000 
        12.22700000      10.85900000      13.00700000      -0.55000000 
        12.73000000      12.86200000      12.17000000       0.20000000 
        13.99300000      11.51700000      11.86700000       0.20000000 
        12.01100000      11.48500000      13.89800000       0.20000000 
        11.25800000      10.37400000      12.61200000       0.20000000 
        12.95700000      10.04000000      13.29400000       0.20000000 
        12.55000000      10.55300000      10.17100000       0.40000000 
        13.03300000      11.90400000       9.55000000       0.40000000 
        11.70200000      14.84500000       6.01100000      -0.80000000 
        11.11500000      14.99300000       4.51300000      -0.20000000 
        11.74100000      14.09700000       3.36900000      -0.55000000 
        11.24800000      16.09700000       4.18100000       0.20000000 
         9.97600000      14.75100000       4.47800000       0.20000000 
        11.94500000      14.71900000       2.48900000       0.20000000 
        12.72100000      13.62800000       3.76500000       0.20000000 
        11.01500000      13.26300000       3.07500000       0.20000000 
        11.42500000      13.76000000       6.18700000       0.40000000 
        10.95100000      15.10300000       6.80300000       0.40000000 
        14.69000000       2.55300000       7.30900000      -0.75000000 
        15.91400000      -0.70600000       9.04400000      -0.75000000 
        19.20300000      -0.70400000       7.35900000      -0.75000000 
        17.98000000       2.55300000       9.05800000      -0.75000000 
        14.82800000       0.24700000       7.18800000       0.50000000 
        15.76800000       3.46400000       9.18000000       0.50000000 
        18.11900000       0.24800000       9.19900000       0.50000000 
        19.08500000       3.46400000       7.17800000       0.50000000 
        15.58800000      -1.33100000       6.02400000      -0.80000000 
        16.18100000      -1.18700000       4.52100000      -0.20000000 
        15.55300000      -2.06900000       3.34900000      -0.55000000 
        17.33700000      -1.39500000       4.55200000       0.20000000 
        16.04000000      -0.10100000       4.15000000       0.20000000 
        15.34300000      -1.44400000       2.47600000       0.20000000 
        14.58200000      -2.54500000       3.73100000       0.20000000 
        16.27800000      -2.90600000       3.05300000       0.20000000 
        15.95800000      -2.34900000       6.21400000       0.40000000 
        16.36000000      -1.00100000       6.82500000       0.40000000 
        15.04100000       1.92300000      10.35000000      -0.80000000 
        14.44400000       2.05800000      11.84500000      -0.20000000 
        15.07900000       1.17000000      13.01200000      -0.55000000 
        13.29300000       1.84800000      11.80800000       0.20000000 
        14.58300000       3.13900000      12.21900000       0.20000000 
        15.30300000       1.78900000      13.88400000       0.20000000 
        14.35700000       0.33200000      13.29400000       0.20000000 
        16.05300000       0.68500000      12.62500000       0.20000000 
        14.73900000       0.85800000      10.16400000       0.40000000 
        14.26800000       2.20800000       9.54500000       0.40000000 
        18.90800000      -1.32800000      10.34600000      -0.80000000 
        19.50700000      -1.17900000      11.84600000      -0.20000000 
        18.89200000      -2.07600000      13.01100000      -0.55000000 
        19.38600000      -0.06800000      12.16100000       0.20000000 
        20.65000000      -1.42200000      11.87300000       0.20000000 
        18.69000000      -1.45700000      13.89000000       0.20000000 
        17.92200000      -2.55700000      12.63200000       0.20000000 
        19.62500000      -2.90700000      13.30000000       0.20000000 
        19.27300000      -2.34600000      10.14900000       0.40000000 
        19.65900000      -0.98000000       9.54400000       0.40000000 
        18.33900000       1.92500000       5.99900000      -0.80000000 
        17.77600000       2.06800000       4.50600000      -0.20000000 
        18.41100000       1.16400000       3.35000000      -0.55000000 
        17.90000000       3.17200000       4.19000000       0.20000000 
        16.63600000       1.82500000       4.47700000       0.20000000 
        18.62600000       1.77700000       2.46900000       0.20000000 
        19.38200000       0.68100000       3.74400000       0.20000000 
        17.68900000       0.33300000       3.05600000       0.20000000 
        18.04900000       0.85300000       6.17800000       0.40000000 
        17.55900000       2.21200000       6.80200000       0.40000000 
        14.69500000       9.00700000       7.30500000      -0.75000000 
        15.91000000       5.77000000       9.06700000      -0.75000000 
        19.19600000       5.78600000       7.31400000      -0.75000000 
        17.97900000       9.00600000       9.05700000      -0.75000000 
        14.82500000       6.69300000       7.19500000       0.50000000 
        15.77000000       9.92500000       9.18000000       0.50000000 
        18.12300000       6.69200000       9.19600000       0.50000000 
        19.08500000       9.92300000       7.17600000       0.50000000 
        15.58200000       5.15400000       6.01400000      -0.80000000 
        16.18400000       5.29200000       4.51400000      -0.20000000 
        15.55300000       4.40000000       3.34700000      -0.55000000 
        17.33400000       5.08700000       4.55100000       0.20000000 
        16.04300000       6.37400000       4.13700000       0.20000000 
        15.33600000       5.02100000       2.47300000       0.20000000 
        14.57900000       3.92300000       3.74100000       0.20000000 
        16.27100000       3.56400000       3.05100000       0.20000000 
        15.88700000       4.09300000       6.19800000       0.40000000 
        16.35100000       5.44500000       6.82100000       0.40000000 
        15.04100000       8.38500000      10.35200000      -0.80000000 
        14.44500000       8.51900000      11.84500000      -0.20000000 
        15.08200000       7.62900000      13.01400000      -0.55000000 
        13.29700000       8.31200000      11.80300000       0.20000000 
        14.58600000       9.60400000      12.21900000       0.20000000 
        15.30800000       8.24900000      13.88600000       0.20000000 
        14.36400000       6.79100000      13.29400000       0.20000000 
        16.05800000       7.14600000      12.62300000       0.20000000 
        14.74000000       7.32000000      10.16400000       0.40000000 
        14.26900000       8.67000000       9.54400000       0.40000000 
        18.90900000       5.15700000      10.35900000      -0.80000000 
        19.51000000       5.30000000      11.85300000      -0.20000000 
        18.89200000       4.39400000      13.01000000      -0.55000000 
        19.39500000       6.40600000      12.17300000       0.20000000 
        20.65000000       5.04900000      11.87400000       0.20000000 
        18.68400000       5.00500000      13.89000000       0.20000000 
        17.92400000       3.90900000      12.61800000       0.20000000 
        19.62500000       3.56400000      13.29500000       0.20000000 
        19.21500000       4.08900000      10.17200000       0.40000000 
        19.66000000       5.46300000       9.55700000       0.40000000 
        18.33600000       8.38400000       5.99900000      -0.80000000 
        17.77600000       8.52600000       4.50600000      -0.20000000 
        18.41100000       7.62000000       3.35100000      -0.55000000 
        17.90300000       9.62900000       4.18900000       0.20000000 
        16.63500000       8.28400000       4.47500000       0.20000000 
        18.62600000       8.23500000       2.46900000       0.20000000 
        19.38000000       7.13800000       3.74500000       0.20000000 
        17.68400000       6.79000000       3.05700000       0.20000000 
        18.03700000       7.31200000       6.18200000       0.40000000 
        17.55700000       8.67500000       6.80000000       0.40000000 
        14.70200000      15.48300000       7.30700000      -0.75000000 
        15.91800000      12.23800000       9.06600000      -0.75000000 
        19.18400000      12.24800000       7.30800000      -0.75000000 
        17.97600000      15.47700000       9.07200000      -0.75000000 
        14.85600000      13.16000000       7.18600000       0.50000000 
        15.75600000      16.41000000       9.20400000       0.50000000 
        18.12700000      13.15300000       9.20300000       0.50000000 
        19.09900000      16.42700000       7.17700000       0.50000000 
        15.59300000      11.61700000       6.00800000      -0.80000000 
        16.19200000      11.75100000       4.51200000      -0.20000000 
        15.55900000      10.85900000       3.34600000      -0.55000000 
        17.34100000      11.54200000       4.54900000       0.20000000 
        16.05200000      12.83500000       4.13300000       0.20000000 
        15.34100000      11.48100000       2.47200000       0.20000000 
        14.58900000      10.38000000       3.74100000       0.20000000 
        16.27800000      10.02600000       3.04800000       0.20000000 
        15.89100000      10.55300000       6.19300000       0.40000000 
        16.36000000      11.89900000       6.81100000       0.40000000 
        15.03400000      14.84300000      10.36400000      -0.80000000 
        14.44400000      14.97400000      11.85300000      -0.20000000 
        15.08300000      14.09300000      13.01000000      -0.55000000 
        13.29500000      14.76700000      11.82400000       0.20000000 
        14.58800000      16.04300000      12.23200000       0.20000000 
        15.30500000      14.71700000      13.88400000       0.20000000 
        14.35900000      13.25800000      13.29700000       0.20000000 
        16.05700000      13.60900000      12.62400000       0.20000000 
        14.74400000      13.76700000      10.17600000       0.40000000 
        14.25500000      15.11400000       9.56100000       0.40000000 
        18.91200000      11.61900000      10.36200000      -0.80000000 
        19.51500000      11.76800000      11.85300000      -0.20000000 
        18.89700000      10.86600000      13.00800000      -0.55000000 
        19.39300000      12.87400000      12.17200000       0.20000000 
        20.65500000      11.52600000      11.87500000       0.20000000 
        18.69100000      11.48200000      13.88800000       0.20000000 
        17.92900000      10.39100000      12.61300000       0.20000000 
        19.62500000      10.03000000      13.29300000       0.20000000 
        19.21800000      10.55000000      10.17700000       0.40000000 